WARNING: for repeatability, setting FPU to use double precision
============================[ Problem Statistics ]=============================
|                                                                             |
|  Number of variables:            50                                         |
|  Number of clauses:             218                                         |
|  Parse time:                   0.00 s                                       |
|                                                                             |
============================[ Search Statistics ]==============================
| Conflicts |          ORIGINAL         |          LEARNT          | Progress |
|           |    Vars  Clauses Literals |    Limit  Clauses Lit/Cl |          |
===============================================================================
===============================================================================
restarts              : 1
conflicts             : 6              (4386 /sec)
decisions             : 17             (0.00 % random) (12427 /sec)
propagations          : 153            (111842 /sec)
conflict literals     : 28             (12.50 % deleted)
Memory used           : 20.00 MB
CPU time              : 0.001368 s

SATISFIABLE
